unknown
(model
; cardinality of BoundSet is 1
(declare-sort BoundSet 0)
; rep: @uc_BoundSet_0
; cardinality of UnboundSet is 1
(declare-sort UnboundSet 0)
(declare-fun groundTerm_2 () UnboundSet)
(define-fun IsWhite ((BOUND_VARIABLE_420 BoundSet)) Bool true)
(define-fun WearsMuzzle ((BOUND_VARIABLE_420 BoundSet)) Bool true)
(define-fun RunsAroundTrack ((BOUND_VARIABLE_420 BoundSet)) Bool true)
(define-fun IsRacing ((BOUND_VARIABLE_420 BoundSet)) Bool false)
(define-fun IsOtherDog ((BOUND_VARIABLE_420 BoundSet)) Bool false)
)
sat
(model
; cardinality of BoundSet is 1
(declare-sort BoundSet 0)
; rep: @uc_BoundSet_0
; cardinality of UnboundSet is 1
(declare-sort UnboundSet 0)
(declare-fun groundTerm_4 () UnboundSet)
(define-fun IsWhite ((BOUND_VARIABLE_447 BoundSet)) Bool true)
(define-fun WearsMuzzle ((BOUND_VARIABLE_447 BoundSet)) Bool true)
(define-fun RunsAroundTrack ((BOUND_VARIABLE_447 BoundSet)) Bool true)
(define-fun IsRacing ((BOUND_VARIABLE_447 BoundSet)) Bool false)
(define-fun IsOtherDog ((BOUND_VARIABLE_447 BoundSet)) Bool false)
)
